c FILE /home/rafael/Documents/HappySet/MIHS/inputs/happygen/output/graph_scale_free_k20_p0.2_v100_20241127_083924.txt
c SOURCE This is a scale-free graph formed for the happy graph colouring problem.
c DESCRIPTION It was generated using the problem generator of Rhyd Lewis
c
c GRAPH STATS
c Seed                             = -1985336794
c Number of Nodes                  = 100
c Number of colours k              = 20
c Number of pre-assignments        = 20
c Number of links per new node     = 5
c Density                          = 0.0979798
c 
c The degrees of nodes 1 to 100, respectively, are as follows 
c [43, 38, 29, 28, 22, 21, 20, 20, 20, 20, 20, 19, 19, 19, 19, 18, 18, 18, 14, 14, 14, 13, 13, 12, 11, 10, 
c  9, 9, 9, 9, 8, 8, 8, 8, 8, 8, 7, 7, 7, 7, 7, 7, 7, 7, 7, 7, 7, 7, 7, 7, 7, 
c  7, 6, 6, 6, 6, 6, 6, 6, 6, 6, 6, 6, 6, 6, 6, 6, 6, 6, 6, 6, 6, 6, 6, 5, 5, 
c  5, 5, 5, 5, 5, 5, 5, 5, 5, 5, 5, 5, 5, 5, 5, 5, 5, 5, 5, 5, 5, 5, 5, 5] 
c  
p edge 100 485 20
e 1 2
e 1 3
e 1 4
e 1 5
e 1 6
e 1 7
e 1 8
e 1 9
e 1 10
e 1 12
e 1 13
e 1 14
e 1 15
e 1 16
e 1 17
e 1 19
e 1 21
e 1 22
e 1 24
e 1 30
e 1 31
e 1 32
e 1 36
e 1 37
e 1 38
e 1 40
e 1 46
e 1 47
e 1 48
e 1 49
e 1 50
e 1 55
e 1 59
e 1 60
e 1 68
e 1 72
e 1 73
e 1 78
e 1 83
e 1 84
e 1 89
e 1 92
e 1 97
e 2 3
e 2 4
e 2 5
e 2 6
e 2 7
e 2 10
e 2 12
e 2 13
e 2 14
e 2 15
e 2 20
e 2 22
e 2 23
e 2 24
e 2 25
e 2 26
e 2 28
e 2 29
e 2 31
e 2 33
e 2 36
e 2 38
e 2 39
e 2 48
e 2 50
e 2 53
e 2 56
e 2 57
e 2 59
e 2 61
e 2 63
e 2 66
e 2 84
e 2 90
e 2 94
e 2 97
e 2 98
e 3 4
e 3 7
e 3 8
e 3 9
e 3 12
e 3 13
e 3 14
e 3 15
e 3 18
e 3 19
e 3 20
e 3 22
e 3 25
e 3 27
e 3 31
e 3 32
e 3 40
e 3 44
e 3 51
e 3 55
e 3 62
e 3 67
e 3 75
e 3 76
e 3 77
e 3 83
e 3 100
e 4 5
e 4 7
e 4 8
e 4 9
e 4 10
e 4 12
e 4 16
e 4 21
e 4 22
e 4 24
e 4 34
e 4 45
e 4 48
e 4 49
e 4 50
e 4 52
e 4 54
e 4 60
e 4 62
e 4 63
e 4 67
e 4 68
e 4 77
e 4 82
e 4 95
e 5 6
e 5 8
e 5 13
e 5 19
e 5 23
e 5 25
e 5 28
e 5 30
e 5 40
e 5 43
e 5 53
e 5 55
e 5 57
e 5 60
e 5 65
e 5 74
e 5 76
e 5 87
e 5 94
e 6 11
e 6 13
e 6 14
e 6 17
e 6 20
e 6 26
e 6 35
e 6 37
e 6 39
e 6 42
e 6 46
e 6 51
e 6 53
e 6 58
e 6 67
e 6 80
e 6 89
e 6 95
e 7 9
e 7 11
e 7 13
e 7 14
e 7 15
e 7 18
e 7 22
e 7 27
e 7 31
e 7 33
e 7 34
e 7 35
e 7 42
e 7 69
e 7 79
e 7 90
e 8 12
e 8 16
e 8 19
e 8 22
e 8 23
e 8 29
e 8 31
e 8 38
e 8 47
e 8 49
e 8 51
e 8 55
e 8 72
e 8 76
e 8 82
e 8 86
e 9 12
e 9 14
e 9 16
e 9 17
e 9 26
e 9 30
e 9 35
e 9 49
e 9 52
e 9 55
e 9 74
e 9 80
e 9 84
e 9 85
e 9 90
e 9 93
e 10 14
e 10 15
e 10 17
e 10 23
e 10 25
e 10 44
e 10 61
e 10 62
e 10 72
e 10 73
e 10 78
e 10 79
e 10 83
e 10 85
e 10 87
e 10 88
e 10 98
e 11 15
e 11 16
e 11 24
e 11 25
e 11 27
e 11 33
e 11 34
e 11 39
e 11 41
e 11 45
e 11 53
e 11 54
e 11 56
e 11 64
e 11 75
e 11 87
e 11 98
e 11 100
e 12 13
e 12 22
e 12 25
e 12 35
e 12 37
e 12 43
e 12 45
e 12 54
e 12 75
e 12 82
e 12 91
e 12 96
e 12 97
e 13 15
e 13 16
e 13 17
e 13 32
e 13 36
e 13 49
e 13 54
e 13 59
e 13 72
e 13 81
e 13 97
e 13 98
e 14 18
e 14 26
e 14 30
e 14 33
e 14 37
e 14 41
e 14 42
e 14 64
e 14 70
e 14 79
e 14 88
e 14 99
e 15 20
e 15 26
e 15 29
e 15 35
e 15 43
e 15 45
e 15 65
e 15 70
e 15 76
e 15 82
e 15 92
e 15 93
e 16 18
e 16 29
e 16 32
e 16 40
e 16 58
e 16 61
e 16 62
e 16 65
e 16 69
e 16 85
e 16 92
e 16 94
e 17 18
e 17 19
e 17 20
e 17 27
e 17 28
e 17 41
e 17 44
e 17 52
e 17 53
e 17 56
e 17 66
e 17 89
e 17 100
e 18 21
e 18 27
e 18 33
e 18 34
e 18 37
e 18 44
e 18 67
e 18 68
e 18 84
e 18 85
e 18 87
e 18 92
e 18 99
e 19 21
e 19 43
e 19 44
e 19 54
e 19 60
e 19 71
e 19 72
e 19 77
e 19 87
e 20 23
e 20 48
e 20 59
e 20 63
e 20 69
e 20 85
e 20 88
e 20 93
e 20 99
e 21 26
e 21 42
e 21 60
e 21 63
e 21 64
e 21 71
e 21 79
e 21 83
e 21 94
e 21 99
e 22 32
e 22 38
e 22 41
e 22 52
e 22 58
e 22 79
e 23 36
e 23 41
e 23 42
e 23 56
e 23 71
e 23 74
e 23 86
e 23 98
e 24 28
e 24 31
e 24 34
e 24 36
e 24 46
e 24 57
e 24 69
e 24 96
e 25 56
e 25 61
e 25 77
e 25 92
e 25 99
e 26 59
e 26 81
e 26 84
e 26 91
e 27 30
e 27 39
e 27 71
e 27 94
e 28 32
e 28 64
e 28 77
e 28 80
e 28 91
e 29 34
e 29 39
e 29 43
e 29 73
e 29 95
e 30 50
e 30 57
e 30 67
e 30 78
e 31 45
e 31 73
e 32 46
e 32 47
e 33 70
e 33 75
e 33 96
e 34 64
e 34 76
e 35 58
e 35 78
e 35 80
e 36 65
e 36 81
e 36 86
e 37 38
e 37 75
e 38 62
e 38 86
e 39 40
e 39 61
e 40 46
e 40 58
e 41 68
e 41 93
e 42 66
e 42 91
e 43 48
e 43 90
e 44 66
e 44 100
e 45 47
e 45 80
e 46 47
e 46 78
e 47 63
e 47 93
e 48 81
e 48 83
e 49 74
e 49 100
e 50 53
e 50 66
e 50 69
e 51 60
e 51 66
e 51 73
e 51 88
e 52 59
e 52 95
e 52 96
e 54 57
e 55 91
e 56 81
e 57 65
e 58 70
e 61 89
e 62 82
e 63 68
e 64 90
e 65 70
e 67 86
e 68 88
e 69 71
e 70 97
e 71 89
e 72 74
e 73 96
e 74 95
n 17 6
n 22 16
n 24 17
n 33 4
n 35 13
n 40 10
n 45 18
n 49 19
n 54 14
n 60 8
n 71 5
n 72 12
n 81 3
n 82 2
n 83 20
n 86 7
n 92 9
n 93 15
n 94 1
n 99 11
